p cnf 535 234
c ind 299 300 301 302 305 315 322 348 409 410 0
c ind 423 430 434 435 438 454 455 458 470 471 0
c ind 490 491 495 506 507 511 512 513 517 518 0
c ind 528 533 532 293 527 524 525 520 521 526 0
c ind 294 529 530 531 296 408 407 323 406 523 0
c ind 522 335 501 502 519 510 500 505 508 509 0
c ind 297 298 499 516 498 503 504 514 515 497 0
c ind 496 494 493 485 492 486 478 484 477 295 0
c ind 483 465 489 482 481 464 480 479 487 488 0
c ind 466 476 461 462 463 460 467 475 468 450 0
c ind 459 474 473 457 472 469 456 449 448 447 0
c ind 444 413 446 453 445 441 442 443 451 452 0
c ind 440 439 437 436 433 431 432 429 428 424 0
c ind 427 425 426 412 411 420 422 418 419 421 0
c ind 417 405 416 414 415 398 404 403 390 402 0
c ind 397 401 383 382 384 400 399 381 396 380 0
c ind 395 379 378 394 393 377 392 389 391 388 0
c ind 387 386 370 376 385 375 362 374 369 373 0
c ind 355 354 356 372 371 353 368 352 349 367 0
c ind 351 350 347 366 345 346 365 364 361 363 0
c ind 360 336 337 359 358 357 321 332 344 331 0
c ind 343 333 334 320 319 342 330 324 329 303 0
c ind 304 341 316 328 340 327 312 325 326 317 0
c ind 318 338 339 314 311 310 313 309 308 306 0
c ind 307 1 0
c ret 95 96 97 98 99 58 100 101 102 103 0
c ret 104 105 106 107 59 108 109 110 111 112 0
c ret 113 114 115 116 60 117 118 119 120 121 0
c ret 122 123 124 125 126 127 128 129 130 131 0
c ret 132 133 134 61 135 136 52 137 138 139 0
c ret 140 141 142 62 143 144 145 146 147 148 0
c ret 149 150 151 63 152 153 154 155 64 156 0
c ret 157 158 159 160 161 162 163 65 164 165 0
c ret 166 167 168 169 170 66 171 172 173 174 0
c ret 175 176 177 178 179 180 181 53 67 182 0
c ret 183 184 185 68 186 187 188 189 190 69 0
c ret 191 192 193 194 195 196 197 198 70 199 0
c ret 200 201 202 203 204 205 206 71 207 208 0
c ret 209 210 211 212 213 72 214 215 216 217 0
c ret 54 218 219 220 221 222 73 223 224 225 0
c ret 226 227 228 74 229 230 231 232 233 234 0
c ret 75 235 236 237 238 239 240 241 242 243 0
c ret 244 245 76 246 247 248 249 250 77 251 0
c ret 252 253 254 255 55 256 257 258 259 260 0
c ret 261 262 263 264 265 266 267 268 269 270 0
c ret 271 272 273 274 275 276 277 278 78 279 0
c ret 280 281 282 283 284 285 286 79 287 288 0
c ret 289 290 56 291 292 80 81 82 57 83 0
c ret 84 85 86 87 88 89 90 91 92 93 0
c ret 94 0
2 3 28 32 -36 0
-2 36 0
-2 -32 0
-2 -3 0
-2 -28 0
3 4 8 12 -16 0
-3 16 0
-3 -12 0
-3 -4 0
-3 -8 0
4 5 351 352 353 0
-4 -5 0
-4 -353 0
-4 -351 0
-4 -352 0
5 6 -356 0
5 6 7 -357 0
-5 -6 0
-5 -7 356 0
-5 356 357 0
6 354 -355 0
-6 -354 0
-6 355 0
7 362 363 0
7 362 370 371 0
-7 -362 0
-7 -363 -370 0
-7 -363 -371 0
8 9 379 380 381 0
-8 -9 0
-8 -381 0
-8 -379 0
-8 -380 0
9 10 -384 0
9 10 11 -385 0
-9 -10 0
-9 -11 384 0
-9 384 385 0
10 382 -383 0
-10 -382 0
-10 383 0
11 390 391 0
11 390 398 399 0
-11 -390 0
-11 -391 -398 0
-11 -391 -399 0
12 13 -294 520 0
12 13 294 521 0
-12 -13 0
-12 294 -521 0
-12 -294 -520 0
13 293 524 0
13 -14 -15 293 0
-13 -293 0
-13 14 -524 0
-13 15 -524 0
14 525 526 0
-14 -525 0
-14 -526 0
15 529 530 531 0
-15 -529 0
-15 -531 0
-15 -530 0
16 20 -23 324 0
16 -17 20 -23 0
-16 23 0
-16 -20 0
-16 17 -324 0
17 -18 325 0
17 -18 -326 0
17 -18 -327 0
-17 18 0
-17 -325 326 327 0
18 19 -330 0
18 19 -333 0
18 19 -334 0
-18 -19 0
-18 330 333 334 0
19 -330 331 332 0
-19 330 0
-19 -332 0
-19 -331 0
20 -21 -22 -475 0
20 -21 -22 -476 0
-20 22 0
-20 21 0
-20 475 476 0
21 478 479 480 481 0
-21 -481 0
-21 -480 0
-21 -478 0
-21 -479 0
22 -472 -473 -474 477 0
-22 474 0
-22 -477 0
-22 472 0
-22 473 0
23 24 27 -350 -378 0
-23 378 0
-23 -27 0
-23 350 0
-23 -24 0
24 -25 -26 -493 494 0
-24 26 0
-24 493 0
-24 25 0
-24 -494 0
25 496 -497 -498 499 0
-25 -496 0
-25 -499 0
-25 498 0
-25 497 0
26 -486 -492 0
-26 486 0
-26 492 0
27 -295 445 446 447 0
-27 -447 0
-27 -446 0
-27 295 0
-27 -445 0
28 29 138 139 140 0
-28 -29 0
-28 -140 0
-28 -138 0
-28 -139 0
29 30 -143 0
29 30 31 -144 0
-29 -30 0
-29 -31 143 0
-29 143 144 0
30 141 -142 0
-30 -141 0
-30 142 0
31 149 150 0
31 149 157 158 0
-31 -149 0
-31 -150 -157 0
-31 -150 -158 0
32 33 110 111 112 0
-32 -33 0
-32 -112 0
-32 -110 0
-32 -111 0
33 34 -115 0
33 34 35 -116 0
-33 -34 0
-33 -35 115 0
-33 115 116 0
34 113 -114 0
-34 -113 0
-34 114 0
35 121 122 0
35 121 129 130 0
-35 -121 0
-35 -122 -129 0
-35 -122 -130 0
36 37 -44 83 0
36 37 -41 -44 0
-36 44 0
-36 -37 0
-36 41 -83 0
37 38 -53 279 0
37 38 53 280 0
-37 -38 0
-37 53 -280 0
-37 -53 -279 0
38 52 283 0
38 -39 -40 52 0
-38 -52 0
-38 39 -283 0
-38 40 -283 0
39 284 285 0
-39 -284 0
-39 -285 0
40 288 289 290 0
-40 -288 0
-40 -290 0
-40 -289 0
41 -42 84 0
41 -42 -85 0
41 -42 -86 0
-41 42 0
-41 -84 85 86 0
42 43 -90 0
42 43 -91 0
42 43 89 0
-42 -43 0
-42 -89 90 91 0
43 89 92 93 0
-43 -89 0
-43 -93 0
-43 -92 0
44 45 48 -50 0
44 45 49 -50 0
-44 -45 0
-44 50 0
-44 -48 -49 0
45 -46 -47 -234 0
45 -46 -47 -235 0
-45 47 0
-45 46 0
-45 234 235 0
46 237 238 239 240 0
-46 -240 0
-46 -239 0
-46 -237 0
-46 -238 0
47 -231 -232 -233 236 0
-47 233 0
-47 -236 0
-47 231 0
-47 232 0
48 255 -256 -257 258 0
-48 -255 0
-48 -258 0
-48 257 0
-48 256 0
49 -245 -251 -252 253 0
-49 252 0
-49 -253 0
-49 245 0
-49 251 0
50 51 -109 -137 0
-50 109 0
-50 137 0
-50 -51 0
51 -54 204 205 206 0
-51 -206 0
-51 -205 0
-51 54 0
-51 -204 0
1 2 0
-1 -2 0
534 0

